120
150
62
57
28
98
52
24
65
23
22
28
40
77
99
32
32
65
43
72
52
23
93
52
65
25
41
33
90
22
83
38
23
74
29
92
57
26
30
99
47
53
97
29
22
22
28
70
79
30
29
25
66
28
86
36
62
88
70
38
55
62
83
66
70
79
60
47
43
66
46
38
89
57
52
27
92
58
66
83
43
66
41
53
96
65
28
58
46
46
46
100
88
89
86
86
89
28
88
65
98
38
46
100
28
88
52
98
66
65
46
99
30
89
31
46
100
77
72
66
84
93
